(set-logic QF_S)
(declare-const x String)
(assert (str.in.re x (re.inter  (re.++ (re.* (re.union (re.range "\u{00}" "\u{09}") (re.range "\u{0b}" "\u{0c}") (re.range "\u{0e}" "\u{84}") (re.range "\u{86}" "\u{ff}")) ) (re.+  (re.union  (str.to.re "\u{30}") (re.union  (str.to.re "\u{31}") (re.union  (str.to.re "\u{32}") (re.union  (str.to.re "\u{33}") (re.union  (str.to.re "\u{34}") (re.union  (str.to.re "\u{35}") (re.union  (str.to.re "\u{36}") (re.union  (str.to.re "\u{37}") (re.union  (str.to.re "\u{38}")  (str.to.re "\u{39}")))))))))) ))  (re.++ (re.* (re.union (re.range "\u{00}" "\u{09}") (re.range "\u{0b}" "\u{0c}") (re.range "\u{0e}" "\u{84}") (re.range "\u{86}" "\u{ff}")) ) (re.++  (re.++  (str.to.re "\u{2e}") (re.++ (re.+  (re.union  (str.to.re "\u{30}") (re.union  (str.to.re "\u{31}") (re.union  (str.to.re "\u{32}") (re.union  (str.to.re "\u{33}") (re.union  (str.to.re "\u{34}") (re.union  (str.to.re "\u{35}") (re.union  (str.to.re "\u{36}") (re.union  (str.to.re "\u{37}") (re.union  (str.to.re "\u{38}")  (str.to.re "\u{39}")))))))))) ) (re.++  (str.to.re "\u{2e}") (re.++ (re.+  (re.union  (str.to.re "\u{30}") (re.union  (str.to.re "\u{31}") (re.union  (str.to.re "\u{32}") (re.union  (str.to.re "\u{33}") (re.union  (str.to.re "\u{34}") (re.union  (str.to.re "\u{35}") (re.union  (str.to.re "\u{36}") (re.union  (str.to.re "\u{37}") (re.union  (str.to.re "\u{38}")  (str.to.re "\u{39}")))))))))) )  (str.to.re "\u{2e}"))))) (re.+  (re.union  (str.to.re "\u{30}") (re.union  (str.to.re "\u{31}") (re.union  (str.to.re "\u{32}") (re.union  (str.to.re "\u{33}") (re.union  (str.to.re "\u{34}") (re.union  (str.to.re "\u{35}") (re.union  (str.to.re "\u{36}") (re.union  (str.to.re "\u{37}") (re.union  (str.to.re "\u{38}")  (str.to.re "\u{39}")))))))))) ))) )))
(check-sat)
(get-model)